s td 452 13 698
b 1 1 282 328 511 542 674
b 2 8 98 280 615 665
b 3 9 152 235 271 567 646
b 4 11 338 369 384 432 560
b 5 17 23 32 202 310 593
b 6 20 149 161 643 646
b 7 21 34 39 228 429 462
b 8 26 199 514 540 619
b 9 3 27 210 325 430 587
b 10 29 35 164 173 353 536
b 11 36 38 61 332 564 598
b 12 40 43 127 418 456 625
b 13 45 82 111 410 577 614
b 14 37 56 159 235 361 450
b 15 62 110 310 359 363
b 16 64 200 316 327 330 516
b 17 23 72 204 459 666
b 18 5 67 73 245 576
b 19 76 125 146 177 362 483
b 20 83 103 176 276 540 562
b 21 84 137 264 267 580
b 22 91 101 243 297 380 434
b 23 70 92 225 281 573 670
b 24 89 97 439 493 513 548
b 25 100 163 402 415 490
b 26 105 274 306 490 609 683
b 27 121 140 385 540 557 648
b 28 123 326 491 536 556
b 29 126 247 374 376 407 453
b 30 133 167 412 468 570 617
b 31 95 139 349 565 624
b 32 141 316 602 651 696
b 33 148 240 461 528 653 695
b 34 63 86 150 213 523 660
b 35 117 154 233 340 510 517
b 36 127 130 157 245 457 502
b 37 33 158 168 518 576
b 38 160 466 564 626 678 692
b 39 108 166 403 407 426
b 40 169 277 296 380 634
b 41 174 293 488 598 691
b 42 112 175 205 222 349 468
b 43 127 187 273 311 469
b 44 191 302 422 443 522 534
b 45 120 194 412 547 600
b 46 39 197 295 393 471
b 47 203 207 324 420 485
b 48 206 405 521 575 695
b 49 88 226 377 387 392 551
b 50 229 373 378 481 628 669
b 51 46 69 132 231 281 409
b 52 54 198 232 388 507
b 53 15 234 301 312 434
b 54 103 211 236 265 294
b 55 246 266 440 441 602
b 56 250 369 552 623 635 657
b 57 251 362 367 377 652
b 58 151 254 423 601 645 650
b 59 85 258 298 450 531
b 60 263 423 438 486 636
b 61 180 268 571 668 686 689
b 62 80 188 272 395 572 664
b 63 15 41 60 185 278
b 64 67 279 334 423 616 677
b 65 283 437 504 525 558 685
b 66 3 93 284 603 637
b 67 182 286 302 472 615 621
b 68 80 94 288 392 474
b 69 81 292 387 596 639
b 70 109 172 303 387 428 630
b 71 138 237 304 423 654
b 72 230 265 313 343 465
b 73 51 190 319 361 458 489
b 74 31 47 78 321 358 398
b 75 322 429 433 549 606 634
b 76 13 265 329 347 490 644
b 77 46 337 408 473 492
b 78 275 309 341 444 463 697
b 79 305 348 368 445 507 583
b 80 28 67 354 487 539
b 81 44 360 394 495 540
b 82 15 370 372 396 689
b 83 262 379 490 533 608
b 84 261 389 420 545 553 698
b 85 127 400 478 479 670
b 86 36 277 401 510 672
b 87 107 413 441 462 584 667
b 88 416 421 470 513 627
b 89 48 245 425 494 530 539
b 90 29 435 538 591 605 619
b 91 356 436 464 503 564
b 92 285 365 447 455 585
b 93 156 214 289 310 449 586
b 94 146 403 451 543 685
b 95 71 177 452 524 638
b 96 41 79 382 454 482 586
b 97 4 208 375 460 559 561
b 98 65 331 476 505 669
b 99 282 427 484 592 627
b 100 102 474 499 511 577
b 101 4 48 216 512 555
b 102 352 397 519 563 623
b 103 51 178 294 527 582
b 104 49 90 532 578 651 691
b 105 18 299 541 578 647
b 106 31 364 569 627 641
b 107 63 317 455 501 599 604
b 108 111 116 118 137 247 632
b 109 136 167 257 518 649 676
b 110 103 230 575 656 658 680
b 111 53 219 318 545 688
b 112 2 356 503 564 626 692
b 113 356 503 564 579 626 692
b 114 7 101 243 301 312 434
b 115 50 101 243 301 312 434
b 116 101 242 243 301 312 434
b 117 101 243 301 312 434 693
b 118 15 101 243 301 312 434
b 119 15 101 243 297 380 434
b 120 10 44 385 495 540 648
b 121 44 323 385 495 540 648
b 122 44 385 424 495 540 648
b 123 44 385 495 521 540 648
b 124 140 385 521 540 648
b 125 12 240 405 528 575 695
b 126 134 240 405 528 575 695
b 127 240 405 515 528 575 695
b 128 240 405 522 528 575 695
b 129 405 521 522 575 695
b 130 14 61 293 564 598 691
b 131 61 290 293 564 598 691
b 132 61 112 293 356 564 598 691
b 133 36 61 112 356 564 598 691
b 134 36 112 356 468 564 691
b 135 16 108 376 403 407 453
b 136 108 143 376 403 407 453
b 137 108 376 403 407 453 554
b 138 108 376 403 407 453 594
b 139 247 376 403 407 453
b 140 19 149 161 235 271 646
b 141 149 161 162 235 271 646
b 142 149 161 220 235 271 646
b 143 149 161 235 271 509 646
b 144 235 271 567 646
b 145 22 127 273 311 418 456
b 146 24 127 273 311 418 456
b 147 127 189 273 311 418 456
b 148 127 216 273 311 418 456
b 149 127 216 418 456 625
b 150 25 98 182 280 472 615
b 151 98 171 182 280 472 615
b 152 98 182 183 280 472 615
b 153 98 182 280 326 472 615
b 154 182 302 326 472 615
b 155 302 326 472 608 629 675
b 156 29 30 199 538 540 619
b 157 29 153 199 538 540 619
b 158 29 199 320 538 540 619
b 159 29 199 538 540 619 695
b 160 29 538 540 619 695
b 161 31 42 47 78 364 641
b 162 31 47 78 364 500 641
b 163 31 47 78 364 640 641
b 164 13 31 47 78 364 398 641
b 165 13 31 364 398 627 641
b 166 51 52 178 190 489 582
b 167 51 178 190 209 489 582
b 168 51 178 190 446 489 582
b 169 51 178 190 489 582 589
b 170 51 178 190 294 489 582
b 171 51 190 294 361 489
b 172 15 55 180 370 686 689
b 173 15 180 217 370 686 689
b 174 15 180 370 529 686 689
b 175 15 180 370 503 686 689
b 176 15 370 503 686 689
b 177 53 57 114 318 545 679
b 178 53 114 318 371 545 679
b 179 53 114 318 448 545 679
b 180 53 114 219 302 318 545 679
b 181 58 95 205 349 468 624
b 182 95 96 205 349 468 624
b 183 95 106 205 349 468 624
b 184 95 205 349 468 477 624
b 185 112 205 349 468
b 186 59 107 440 441 602 667
b 187 107 255 440 441 602 667
b 188 107 342 440 441 602 667
b 189 107 366 440 441 602 667
b 190 107 440 441 602 667
b 191 107 441 462 602 667
b 192 66 200 316 327 602 696
b 193 200 215 316 327 602 696
b 194 200 315 316 327 602 696
b 195 200 316 327 602 628 696
b 196 316 602 628 651 696
b 197 462 602 628 651
b 198 68 71 125 177 483 638
b 199 71 125 177 350 483 638
b 200 71 125 177 431 483 638
b 201 71 125 177 483 638 694
b 202 125 146 177 362 483 638
b 203 74 120 167 412 600 617
b 204 120 167 181 412 600 617
b 205 120 167 381 412 600 617
b 206 120 167 412 595 600 617
b 207 167 412 468 617
b 208 136 167 257 468 518
b 209 136 257 468 518 576
b 210 63 86 136 438 468 506 576
b 211 4 48 75 208 375 555
b 212 4 48 208 375 508 555
b 213 4 48 208 375 555 687
b 214 4 48 86 208 375 555
b 215 4 48 86 216 555
b 216 77 102 410 511 577 614
b 217 102 186 410 511 577 614
b 218 102 269 410 511 577 614
b 219 102 410 511 577 588 614
b 220 102 410 474 511 577 614
b 221 111 410 474 511 577 614
b 222 54 87 305 388 507 583
b 223 54 221 305 388 507 583
b 224 54 291 305 388 507 583
b 225 54 305 388 485 507 583
b 226 54 198 388 485 507
b 227 80 94 99 188 474 572
b 228 80 94 113 188 474 572
b 229 80 94 188 346 474 572
b 230 80 94 188 474 572 611
b 231 80 94 392 474
b 232 104 207 261 420 485 698
b 233 207 261 335 420 485 698
b 234 172 207 261 420 485 679 698
b 235 172 261 420 485 545 679 698
b 236 172 198 485 545 679
b 237 41 60 79 115 185 382
b 238 41 60 79 185 227 382
b 239 41 60 79 185 382 467
b 240 15 41 60 79 185 382 677
b 241 15 41 79 382 586 677
b 242 33 119 136 168 257 518
b 243 33 136 168 192 257 518
b 244 33 136 168 238 257 518
b 245 33 136 168 253 257 518
b 246 33 136 168 257 518 576
b 247 23 122 202 459 593 666
b 248 23 202 411 459 593 666
b 249 23 156 202 459 466 593 666
b 250 23 156 202 310 459 466 593
b 251 34 39 124 228 295 393
b 252 34 39 170 228 295 393
b 253 34 39 228 295 344 393
b 254 34 39 130 228 295 393
b 255 34 39 130 228 429 462
b 256 48 67 128 487 494 539
b 257 48 67 218 487 494 539
b 258 48 67 487 494 539 574
b 259 48 67 193 245 487 494 539
b 260 4 5 63 127 245 289 369 438 468 506 576 625 677
b 261 5 63 127 130 245 289 369 468 502 506 576 625 677
b 262 5 63 127 130 245 289 369 457 468 502 576 625 677
b 263 5 63 130 245 289 297 369 457 468 502 576 625 677
b 264 15 63 130 156 277 289 297 369 457 468 625 651 677
b 265 15 63 156 214 277 289 310 369 457 468 625 651 677
b 266 15 63 110 156 214 277 310 369 457 468 625 651
b 267 15 110 156 277 310 356 369 457 468 564 625 651
b 268 36 110 277 356 457 468 564 651 691
b 269 18 36 110 277 457 651 691
b 270 18 36 110 277 457 672
b 271 15 156 310 356 369 459 466 564 625
b 272 15 356 369 459 466 563 564 625
b 273 15 356 466 503 563 564 625
b 274 369 459 552 563 623 635
b 275 15 156 214 289 310 586 677
b 276 15 130 156 277 297 462 651 677
b 277 15 130 277 297 429 462
b 278 15 277 297 380 429
b 279 156 462 628 651 677
b 280 4 5 63 86 127 245 369 438 468 506 576 625 677
b 281 4 5 67 86 127 245 369 438 468 576 625 677
b 282 4 67 86 127 216 245 369 438 468 625 677
b 283 4 48 67 86 216 245 369 438 468 677
b 284 48 67 245 369 423 438 468 677
b 285 48 67 193 245 369 423 468
b 286 48 67 193 245 369 487 539
b 287 28 67 369 487 539
b 288 4 63 127 289 408 438 506
b 289 129 352 397 552 623 635
b 290 179 352 397 552 623 635
b 291 352 355 397 552 623 635
b 292 352 397 459 552 563 623 635
b 293 131 163 274 402 490 609
b 294 163 274 402 404 490 609
b 295 163 235 274 402 490 597 609
b 296 235 274 402 490 597 609
b 297 135 164 173 326 536 556
b 298 155 164 173 326 536 556
b 299 164 173 223 326 536 556
b 300 164 173 308 326 536 556
b 301 164 173 326 536 556
b 302 29 164 173 326 536
b 303 13 94 140 176 235 276 302 398 545 629 638 674 679
b 304 94 219 276 302 369 398 545 629 638 679
b 305 114 219 302 369 398 545 629 679
b 306 28 114 369 398 545 629 679
b 307 13 103 140 176 235 276 302 540 562 629 674
b 308 13 103 140 176 211 235 294 302 540 562 629 674
b 309 13 103 140 176 211 235 294 302 540 562 629 675
b 310 13 103 140 211 235 294 302 540 575 608 629 675
b 311 140 235 294 302 522 540 575 608 629 675
b 312 140 302 522 540 575 608 629 675 695
b 313 29 302 540 608 629 675 695
b 314 29 302 326 608 629 675
b 315 140 521 522 540 575 695
b 316 235 294 302 489 522 608 675
b 317 235 294 361 489
b 318 13 103 211 235 265 294 575 608
b 319 13 103 235 265 490 575 608
b 320 103 235 265 490 575 597
b 321 13 94 111 140 176 235 362 398 545 638 674 679
b 322 13 94 111 140 235 362 398 545 627 674 679
b 323 94 111 140 235 362 474 545 627 674 679
b 324 94 140 235 362 392 474 545 627 679
b 325 140 235 362 387 392 545 627 639 679
b 326 140 172 198 387 545 627 639 679
b 327 109 140 172 198 387 627 630 639
b 328 81 109 140 198 387 627 630 639
b 329 235 362 387 392 567 639
b 330 88 362 377 387 392 567 639
b 331 111 474 511 627 674
b 332 13 111 146 176 362 638 679
b 333 13 111 146 176 430 679
b 334 111 146 176 403 430
b 335 142 302 422 443 608 675
b 336 259 302 422 443 608 675
b 337 144 230 265 465 575 658
b 338 230 265 465 526 575 658
b 339 230 265 465 535 575 658
b 340 230 265 465 575 597 658
b 341 103 230 265 575 597 658
b 342 6 145 219 338 369 432
b 343 6 219 333 338 369 432
b 344 6 219 338 369 432 681
b 345 6 219 276 338 369 432
b 346 6 94 219 276 369 432 638
b 347 117 147 277 340 510 672
b 348 117 195 277 340 510 672
b 349 117 277 340 399 510 672
b 350 117 277 340 497 510 672
b 351 36 277 510 672
b 352 46 69 132 165 408 492
b 353 46 69 132 249 408 492
b 354 46 69 132 270 408 492
b 355 46 69 132 408 492 633
b 356 46 69 132 281 408
b 357 138 151 184 237 423 650
b 358 138 151 237 423 498 650
b 359 138 151 193 237 423 468 650
b 360 151 193 237 423 468 650
b 361 116 118 137 196 264 267
b 362 116 118 137 264 267 406
b 363 116 118 137 264 267 581
b 364 116 118 137 176 264 267
b 365 111 116 118 137 176 247
b 366 111 176 247 403
b 367 156 201 214 310 359 363
b 368 156 214 310 351 359 363
b 369 156 214 310 359 363 612
b 370 63 110 156 214 310 359 363
b 371 212 282 328 427 542 592
b 372 282 328 427 542 568 592
b 373 282 328 427 542 592 618
b 374 282 328 427 542 592 684
b 375 282 328 427 542 592 627
b 376 282 328 511 542 627 674
b 377 70 127 224 281 479 670
b 378 70 127 281 391 479 670
b 379 70 127 281 479 662 670
b 380 4 70 127 281 479 670
b 381 4 127 281 479 670
b 382 4 127 281 408
b 383 67 239 423 438 486 616
b 384 67 314 423 438 486 616
b 385 67 339 423 438 486 616
b 386 67 414 423 438 486 616
b 387 67 423 438 486 616
b 388 67 423 438 616 677
b 389 244 296 380 433 606 634
b 390 296 380 386 433 606 634
b 391 296 380 390 433 606 634
b 392 296 380 433 606 607 634
b 393 277 296 380 433 606 634
b 394 277 380 429 433 606 634
b 395 5 130 245 248 502 576
b 396 5 130 245 502 544 576
b 397 252 262 265 490 608 644
b 398 262 265 300 490 608 644
b 399 262 265 490 546 608 644
b 400 262 265 490 608 620 644
b 401 13 265 490 608 644
b 402 65 256 331 373 378 669
b 403 65 331 373 378 419 669
b 404 65 156 331 373 378 669 677
b 405 156 373 378 628 669 677
b 406 18 49 90 260 299 578
b 407 18 49 90 299 578 613
b 408 18 49 90 299 578 642
b 409 18 49 90 299 578 655
b 410 18 49 90 578 651 691
b 411 88 287 362 377 387 652
b 412 88 362 377 387 622 652
b 413 88 362 377 387 567 639 652
b 414 103 176 211 294 307 562
b 415 103 176 211 294 475 562
b 416 63 213 336 438 506 523
b 417 63 213 417 438 506 523
b 418 63 86 136 213 438 506 523 576
b 419 285 317 345 365 455 501
b 420 285 317 365 455 501 661
b 421 285 317 365 455 501 663
b 422 285 317 365 408 455 501
b 423 63 317 408 455 501
b 424 63 289 408 438 501 506
b 425 110 241 275 309 357 444
b 426 110 241 275 309 444 496
b 427 110 241 275 309 444 590
b 428 110 241 275 309 444 457
b 429 18 110 241 275 457 672
b 430 383 403 437 504 543 685
b 431 403 437 442 504 543 685
b 432 403 437 504 543 685 690
b 433 403 430 437 504 543 685
b 434 146 403 430 543 685
b 435 294 302 422 443 489 522 608 675
b 436 37 85 361 450 480 531
b 437 37 85 361 450 531 566
b 438 37 85 361 450 531 673
b 439 37 85 361 450 531 682
b 440 37 235 361 450
b 441 89 421 493 513 520 627
b 442 89 421 493 513 610 627
b 443 89 421 493 513 627 659
b 444 81 89 421 493 513 627
b 445 81 421 493 513 627
b 446 3 93 210 325 537 603
b 447 3 93 210 325 603 671
b 448 3 13 93 210 325 603 679
b 449 3 13 210 325 430 679
b 450 81 109 387 550 630 639
b 451 81 109 387 630 631 639
b 452 356 466 503 563 564 625 626 692
1 376
2 153
3 144
4 345
5 250
6 143
7 255
8 159
9 449
10 302
11 133
12 149
13 221
14 440
15 370
16 195
17 249
18 281
19 202
20 307
21 364
22 119
23 380
24 444
25 295
26 295
27 124
28 301
29 139
30 207
31 184
32 196
33 128
34 418
35 350
36 262
37 246
38 452
39 138
40 393
41 132
42 185
43 148
44 435
45 206
46 254
47 234
48 129
49 330
50 405
51 356
52 226
53 118
54 318
55 190
56 274
57 413
58 359
59 439
60 387
61 175
62 230
63 240
64 388
65 433
66 448
67 154
68 231
69 328
70 327
71 359
72 340
73 171
74 164
75 394
76 401
77 355
78 428
79 225
80 287
81 123
82 175
83 400
84 235
85 380
86 351
87 191
88 444
89 259
90 159
91 273
92 422
93 275
94 434
95 201
96 241
97 214
98 404
99 375
100 220
101 215
102 292
103 170
104 410
105 409
106 165
107 423
108 365
109 208
110 341
111 180
112 452
113 452
114 118
115 118
116 118
117 118
118 119
119 278
120 123
121 123
122 123
123 124
124 315
125 128
126 128
127 128
128 129
129 315
130 132
131 132
132 133
133 134
134 185
134 268
135 138
136 138
137 138
138 139
139 366
140 143
141 143
142 143
143 144
144 329
145 148
146 148
147 148
148 149
149 282
150 153
151 153
152 153
153 154
154 155
155 314
156 159
157 159
158 159
159 313
159 160
161 164
162 164
163 164
164 165
165 322
166 170
167 170
168 170
169 170
170 171
171 317
172 175
173 175
174 175
175 273
175 176
177 180
178 180
179 180
180 305
181 184
182 184
183 184
184 185
186 190
187 190
188 190
189 190
190 191
191 197
192 195
193 195
194 195
195 196
196 197
197 279
198 201
199 201
200 201
201 202
202 332
203 206
204 206
205 206
206 207
207 208
208 209
209 246
209 210
210 418
210 280
211 214
212 214
213 214
214 215
215 283
216 220
217 220
218 220
219 220
220 221
221 331
222 225
223 225
224 225
225 226
226 236
227 230
228 230
229 230
230 231
231 324
232 234
233 234
234 235
235 236
236 326
237 240
238 240
239 240
240 241
241 275
242 246
243 246
244 246
245 246
247 249
248 249
249 250
250 271
251 254
252 254
253 254
254 255
255 277
256 259
257 259
258 259
259 286
260 261
260 280
260 288
261 395
261 396
261 262
262 263
263 264
264 265
264 276
265 266
265 275
266 370
266 267
267 268
267 271
268 269
269 410
269 270
270 351
270 429
271 272
272 273
272 274
273 452
274 292
276 277
276 279
277 278
278 394
279 405
280 281
281 282
282 283
283 284
284 388
284 285
285 359
285 286
286 287
287 306
288 382
288 424
289 292
290 292
291 292
293 295
294 295
295 320
295 296
297 301
298 301
299 301
300 301
301 302
302 314
303 304
303 307
303 321
304 346
304 305
305 306
307 308
308 414
308 415
308 309
309 310
310 311
310 318
311 312
311 316
312 313
312 315
313 314
316 435
316 317
317 440
318 319
319 401
319 320
320 341
321 322
321 332
322 323
323 324
323 331
324 325
325 326
325 329
326 327
327 328
328 444
328 450
328 451
329 330
330 413
331 376
332 333
333 449
333 334
334 366
334 434
335 435
336 435
337 340
338 340
339 340
340 341
342 345
343 345
344 345
345 346
347 350
348 350
349 350
350 351
352 355
353 355
354 355
355 356
356 382
357 359
358 359
359 360
361 364
362 364
363 364
364 365
365 366
367 370
368 370
369 370
371 375
372 375
373 375
374 375
375 376
377 380
378 380
379 380
380 382
380 381
383 387
384 387
385 387
386 387
387 388
389 393
390 393
391 393
392 393
393 394
397 400
398 400
399 400
400 401
402 404
403 404
404 405
406 409
407 409
408 409
409 410
411 413
412 413
416 418
417 418
419 422
420 422
421 422
422 423
423 424
425 428
426 428
427 428
428 429
430 433
431 433
432 433
433 434
436 439
437 439
438 439
439 440
441 444
442 444
443 444
444 445
446 448
447 448
448 449
